p tw 160 32801 2 
1 82 
1 84 
1 85 
1 87 
1 89 
1 92 
1 93 
1 95 
1 97 
1 99 
1 101 
1 103 
1 106 
1 107 
1 110 
1 111 
1 113 
1 115 
1 117 
1 119 
1 121 
1 123 
1 125 
1 128 
1 130 
1 131 
1 133 
1 135 
1 137 
1 139 
1 141 
1 143 
1 145 
1 148 
1 150 
1 152 
1 153 
1 155 
1 157 
1 159 
2 81 
2 83 
2 86 
2 88 
2 90 
2 91 
2 94 
2 96 
2 98 
2 100 
2 102 
2 104 
2 105 
2 108 
2 109 
2 112 
2 114 
2 116 
2 118 
2 120 
2 122 
2 124 
2 126 
2 127 
2 129 
2 132 
2 134 
2 136 
2 138 
2 140 
2 142 
2 144 
2 146 
2 147 
2 149 
2 151 
2 154 
2 156 
2 158 
2 160 
3 4 
3 82 
3 84 
3 85 
3 87 
3 90 
3 92 
3 94 
3 96 
3 98 
3 99 
3 101 
3 104 
3 106 
3 108 
3 110 
3 112 
3 114 
3 115 
3 118 
3 120 
3 122 
3 124 
3 126 
3 128 
3 130 
3 132 
3 134 
3 136 
3 137 
3 139 
3 142 
3 144 
3 146 
3 148 
3 150 
3 152 
3 153 
3 155 
3 157 
3 160 
4 81 
4 83 
4 86 
4 88 
4 89 
4 91 
4 93 
4 95 
4 97 
4 100 
4 102 
4 103 
4 105 
4 107 
4 109 
4 111 
4 113 
4 116 
4 117 
4 119 
4 121 
4 123 
4 125 
4 127 
4 129 
4 131 
4 133 
4 135 
4 138 
4 140 
4 141 
4 143 
4 145 
4 147 
4 149 
4 151 
4 154 
4 156 
4 158 
4 159 
5 6 
5 81 
5 83 
5 86 
5 87 
5 90 
5 92 
5 94 
5 95 
5 97 
5 100 
5 101 
5 103 
5 105 
5 107 
5 109 
5 112 
5 114 
5 116 
5 118 
5 120 
5 122 
5 124 
5 125 
5 128 
5 130 
5 132 
5 133 
5 136 
5 138 
5 139 
5 141 
5 143 
5 145 
5 148 
5 150 
5 151 
5 153 
5 156 
5 157 
5 159 
6 82 
6 84 
6 85 
6 88 
6 89 
6 91 
6 93 
6 96 
6 98 
6 99 
6 102 
6 104 
6 106 
6 108 
6 110 
6 111 
6 113 
6 115 
6 117 
6 119 
6 121 
6 123 
6 126 
6 127 
6 129 
6 131 
6 134 
6 135 
6 137 
6 140 
6 142 
6 144 
6 146 
6 147 
6 149 
6 152 
6 154 
6 155 
6 158 
6 160 
7 8 
7 82 
7 84 
7 86 
7 88 
7 90 
7 92 
7 94 
7 96 
7 97 
7 100 
7 102 
7 104 
7 106 
7 108 
7 110 
7 111 
7 114 
7 116 
7 117 
7 119 
7 122 
7 123 
7 125 
7 128 
7 130 
7 131 
7 133 
7 136 
7 138 
7 140 
7 141 
7 144 
7 145 
7 148 
7 150 
7 152 
7 154 
7 156 
7 158 
7 160 
8 81 
8 83 
8 85 
8 87 
8 89 
8 91 
8 93 
8 95 
8 98 
8 99 
8 101 
8 103 
8 105 
8 107 
8 109 
8 112 
8 113 
8 115 
8 118 
8 120 
8 121 
8 124 
8 126 
8 127 
8 129 
8 132 
8 134 
8 135 
8 137 
8 139 
8 142 
8 143 
8 146 
8 147 
8 149 
8 151 
8 153 
8 155 
8 157 
8 159 
9 10 
9 82 
9 84 
9 86 
9 87 
9 89 
9 91 
9 94 
9 96 
9 97 
9 99 
9 101 
9 104 
9 106 
9 108 
9 109 
9 111 
9 114 
9 116 
9 118 
9 120 
9 121 
9 123 
9 126 
9 128 
9 129 
9 132 
9 133 
9 135 
9 138 
9 140 
9 141 
9 143 
9 146 
9 147 
9 150 
9 151 
9 154 
9 155 
9 157 
9 159 
10 81 
10 83 
10 85 
10 88 
10 90 
10 92 
10 93 
10 95 
10 98 
10 100 
10 102 
10 103 
10 105 
10 107 
10 110 
10 112 
10 113 
10 115 
10 117 
10 119 
10 122 
10 124 
10 125 
10 127 
10 130 
10 131 
10 134 
10 136 
10 137 
10 139 
10 142 
10 144 
10 145 
10 148 
10 149 
10 152 
10 153 
10 156 
10 158 
10 160 
11 12 
11 81 
11 84 
11 86 
11 87 
11 90 
11 91 
11 94 
11 96 
11 98 
11 99 
11 102 
11 103 
11 106 
11 108 
11 109 
11 111 
11 113 
11 115 
11 118 
11 120 
11 122 
11 124 
11 125 
11 127 
11 129 
11 131 
11 133 
11 135 
11 137 
11 140 
11 142 
11 143 
11 145 
11 148 
11 150 
11 152 
11 153 
11 156 
11 158 
11 159 
12 82 
12 83 
12 85 
12 88 
12 89 
12 92 
12 93 
12 95 
12 97 
12 100 
12 101 
12 104 
12 105 
12 107 
12 110 
12 112 
12 114 
12 116 
12 117 
12 119 
12 121 
12 123 
12 126 
12 128 
12 130 
12 132 
12 134 
12 136 
12 138 
12 139 
12 141 
12 144 
12 146 
12 147 
12 149 
12 151 
12 154 
12 155 
12 157 
12 160 
13 14 
13 81 
13 84 
13 85 
13 88 
13 89 
13 92 
13 94 
13 95 
13 97 
13 99 
13 101 
13 103 
13 105 
13 108 
13 109 
13 112 
13 113 
13 116 
13 118 
13 119 
13 122 
13 123 
13 126 
13 128 
13 129 
13 131 
13 134 
13 135 
13 138 
13 140 
13 142 
13 144 
13 145 
13 147 
13 150 
13 152 
13 153 
13 156 
13 157 
13 160 
14 82 
14 83 
14 86 
14 87 
14 90 
14 91 
14 93 
14 96 
14 98 
14 100 
14 102 
14 104 
14 106 
14 107 
14 110 
14 111 
14 114 
14 115 
14 117 
14 120 
14 121 
14 124 
14 125 
14 127 
14 130 
14 132 
14 133 
14 136 
14 137 
14 139 
14 141 
14 143 
14 146 
14 148 
14 149 
14 151 
14 154 
14 155 
14 158 
14 159 
15 16 
15 82 
15 83 
15 85 
15 88 
15 89 
15 91 
15 94 
15 95 
15 98 
15 99 
15 101 
15 103 
15 106 
15 108 
15 110 
15 111 
15 113 
15 116 
15 117 
15 120 
15 122 
15 124 
15 125 
15 127 
15 130 
15 132 
15 133 
15 135 
15 138 
15 140 
15 141 
15 144 
15 146 
15 148 
15 149 
15 151 
15 153 
15 156 
15 157 
15 160 
16 81 
16 84 
16 86 
16 87 
16 90 
16 92 
16 93 
16 96 
16 97 
16 100 
16 102 
16 104 
16 105 
16 107 
16 109 
16 112 
16 114 
16 115 
16 118 
16 119 
16 121 
16 123 
16 126 
16 128 
16 129 
16 131 
16 134 
16 136 
16 137 
16 139 
16 142 
16 143 
16 145 
16 147 
16 150 
16 152 
16 154 
16 155 
16 158 
16 159 
17 18 
17 82 
17 84 
17 85 
17 87 
17 90 
17 92 
17 93 
17 96 
17 98 
17 100 
17 102 
17 104 
17 105 
17 108 
17 109 
17 112 
17 113 
17 116 
17 117 
17 120 
17 121 
17 123 
17 125 
17 127 
17 129 
17 131 
17 134 
17 135 
17 138 
17 139 
17 141 
17 144 
17 146 
17 148 
17 150 
17 151 
17 153 
17 156 
17 157 
17 159 
18 81 
18 83 
18 86 
18 88 
18 89 
18 91 
18 94 
18 95 
18 97 
18 99 
18 101 
18 103 
18 106 
18 107 
18 110 
18 111 
18 114 
18 115 
18 118 
18 119 
18 122 
18 124 
18 126 
18 128 
18 130 
18 132 
18 133 
18 136 
18 137 
18 140 
18 142 
18 143 
18 145 
18 147 
18 149 
18 152 
18 154 
18 155 
18 158 
18 160 
19 20 
19 82 
19 83 
19 85 
19 87 
19 89 
19 91 
19 93 
19 96 
19 97 
19 99 
19 102 
19 103 
19 105 
19 107 
19 109 
19 111 
19 114 
19 116 
19 117 
19 120 
19 122 
19 123 
19 126 
19 127 
19 130 
19 132 
19 134 
19 136 
19 138 
19 140 
19 142 
19 144 
19 145 
19 148 
19 150 
19 152 
19 153 
19 155 
19 158 
19 159 
20 81 
20 84 
20 86 
20 88 
20 90 
20 92 
20 94 
20 95 
20 98 
20 100 
20 101 
20 104 
20 106 
20 108 
20 110 
20 112 
20 113 
20 115 
20 118 
20 119 
20 121 
20 124 
20 125 
20 128 
20 129 
20 131 
20 133 
20 135 
20 137 
20 139 
20 141 
20 143 
20 146 
20 147 
20 149 
20 151 
20 154 
20 156 
20 157 
20 160 
21 22 
21 81 
21 83 
21 86 
21 88 
21 90 
21 91 
21 93 
21 95 
21 98 
21 99 
21 102 
21 103 
21 105 
21 108 
21 110 
21 111 
21 114 
21 115 
21 118 
21 119 
21 122 
21 123 
21 125 
21 128 
21 129 
21 132 
21 134 
21 135 
21 138 
21 139 
21 141 
21 144 
21 146 
21 148 
21 150 
21 152 
21 154 
21 155 
21 157 
21 159 
22 82 
22 84 
22 85 
22 87 
22 89 
22 92 
22 94 
22 96 
22 97 
22 100 
22 101 
22 104 
22 106 
22 107 
22 109 
22 112 
22 113 
22 116 
22 117 
22 120 
22 121 
22 124 
22 126 
22 127 
22 130 
22 131 
22 133 
22 136 
22 137 
22 140 
22 142 
22 143 
22 145 
22 147 
22 149 
22 151 
22 153 
22 156 
22 158 
22 160 
23 24 
23 81 
23 84 
23 85 
23 87 
23 89 
23 91 
23 93 
23 96 
23 97 
23 100 
23 101 
23 103 
23 105 
23 108 
23 110 
23 112 
23 114 
23 115 
23 118 
23 120 
23 122 
23 123 
23 126 
23 127 
23 130 
23 131 
23 133 
23 135 
23 138 
23 139 
23 141 
23 143 
23 146 
23 148 
23 149 
23 152 
23 154 
23 156 
23 158 
23 160 
24 82 
24 83 
24 86 
24 88 
24 90 
24 92 
24 94 
24 95 
24 98 
24 99 
24 102 
24 104 
24 106 
24 107 
24 109 
24 111 
24 113 
24 116 
24 117 
24 119 
24 121 
24 124 
24 125 
24 128 
24 129 
24 132 
24 134 
24 136 
24 137 
24 140 
24 142 
24 144 
24 145 
24 147 
24 150 
24 151 
24 153 
24 155 
24 157 
24 159 
25 26 
25 81 
25 84 
25 86 
25 87 
25 89 
25 91 
25 94 
25 96 
25 97 
25 99 
25 102 
25 103 
25 105 
25 107 
25 110 
25 111 
25 113 
25 115 
25 117 
25 120 
25 121 
25 124 
25 125 
25 128 
25 130 
25 131 
25 134 
25 136 
25 138 
25 139 
25 142 
25 144 
25 146 
25 147 
25 150 
25 151 
25 154 
25 156 
25 157 
25 160 
26 82 
26 83 
26 85 
26 88 
26 90 
26 92 
26 93 
26 95 
26 98 
26 100 
26 101 
26 104 
26 106 
26 108 
26 109 
26 112 
26 114 
26 116 
26 118 
26 119 
26 122 
26 123 
26 126 
26 127 
26 129 
26 132 
26 133 
26 135 
26 137 
26 140 
26 141 
26 143 
26 145 
26 148 
26 149 
26 152 
26 153 
26 155 
26 158 
26 159 
27 28 
27 82 
27 83 
27 86 
27 88 
27 89 
27 91 
27 93 
27 96 
27 98 
27 99 
27 102 
27 104 
27 105 
27 107 
27 110 
27 112 
27 114 
27 116 
27 117 
27 120 
27 122 
27 124 
27 126 
27 128 
27 129 
27 131 
27 133 
27 135 
27 137 
27 139 
27 141 
27 143 
27 145 
27 147 
27 150 
27 152 
27 153 
27 156 
27 157 
27 160 
28 81 
28 84 
28 85 
28 87 
28 90 
28 92 
28 94 
28 95 
28 97 
28 100 
28 101 
28 103 
28 106 
28 108 
28 109 
28 111 
28 113 
28 115 
28 118 
28 119 
28 121 
28 123 
28 125 
28 127 
28 130 
28 132 
28 134 
28 136 
28 138 
28 140 
28 142 
28 144 
28 146 
28 148 
28 149 
28 151 
28 154 
28 155 
28 158 
28 159 
29 30 
29 82 
29 83 
29 85 
29 87 
29 90 
29 91 
29 93 
29 95 
29 97 
29 99 
29 102 
29 103 
29 106 
29 108 
29 110 
29 112 
29 114 
29 116 
29 118 
29 120 
29 121 
29 123 
29 125 
29 128 
29 129 
29 131 
29 134 
29 136 
29 137 
29 140 
29 142 
29 143 
29 145 
29 148 
29 149 
29 151 
29 154 
29 156 
29 157 
29 160 
30 81 
30 84 
30 86 
30 88 
30 89 
30 92 
30 94 
30 96 
30 98 
30 100 
30 101 
30 104 
30 105 
30 107 
30 109 
30 111 
30 113 
30 115 
30 117 
30 119 
30 122 
30 124 
30 126 
30 127 
30 130 
30 132 
30 133 
30 135 
30 138 
30 139 
30 141 
30 144 
30 146 
30 147 
30 150 
30 152 
30 153 
30 155 
30 158 
30 159 
31 32 
31 81 
31 83 
31 86 
31 88 
31 90 
31 92 
31 93 
31 96 
31 98 
31 99 
31 101 
31 103 
31 106 
31 108 
31 110 
31 111 
31 113 
31 116 
31 118 
31 120 
31 121 
31 123 
31 126 
31 127 
31 130 
31 131 
31 134 
31 136 
31 138 
31 139 
31 141 
31 143 
31 145 
31 147 
31 150 
31 151 
31 153 
31 155 
31 158 
31 160 
32 82 
32 84 
32 85 
32 87 
32 89 
32 91 
32 94 
32 95 
32 97 
32 100 
32 102 
32 104 
32 105 
32 107 
32 109 
32 112 
32 114 
32 115 
32 117 
32 119 
32 122 
32 124 
32 125 
32 128 
32 129 
32 132 
32 133 
32 135 
32 137 
32 140 
32 142 
32 144 
32 146 
32 148 
32 149 
32 152 
32 154 
32 156 
32 157 
32 159 
33 34 
33 82 
33 83 
33 86 
33 87 
33 89 
33 91 
33 93 
33 95 
33 97 
33 100 
33 102 
33 104 
33 106 
33 108 
33 109 
33 112 
33 113 
33 115 
33 118 
33 119 
33 122 
33 124 
33 125 
33 127 
33 130 
33 131 
33 134 
33 136 
33 138 
33 140 
33 141 
33 143 
33 146 
33 147 
33 150 
33 152 
33 153 
33 155 
33 157 
33 160 
34 81 
34 84 
34 85 
34 88 
34 90 
34 92 
34 94 
34 96 
34 98 
34 99 
34 101 
34 103 
34 105 
34 107 
34 110 
34 111 
34 114 
34 116 
34 117 
34 120 
34 121 
34 123 
34 126 
34 128 
34 129 
34 132 
34 133 
34 135 
34 137 
34 139 
34 142 
34 144 
34 145 
34 148 
34 149 
34 151 
34 154 
34 156 
34 158 
34 159 
35 36 
35 82 
35 84 
35 86 
35 88 
35 89 
35 92 
35 93 
35 95 
35 98 
35 100 
35 102 
35 103 
35 106 
35 107 
35 110 
35 112 
35 113 
35 116 
35 118 
35 120 
35 121 
35 124 
35 126 
35 128 
35 130 
35 132 
35 134 
35 135 
35 138 
35 140 
35 142 
35 143 
35 146 
35 148 
35 150 
35 152 
35 154 
35 156 
35 158 
35 159 
36 81 
36 83 
36 85 
36 87 
36 90 
36 91 
36 94 
36 96 
36 97 
36 99 
36 101 
36 104 
36 105 
36 108 
36 109 
36 111 
36 114 
36 115 
36 117 
36 119 
36 122 
36 123 
36 125 
36 127 
36 129 
36 131 
36 133 
36 136 
36 137 
36 139 
36 141 
36 144 
36 145 
36 147 
36 149 
36 151 
36 153 
36 155 
36 157 
36 160 
37 38 
37 82 
37 83 
37 86 
37 88 
37 89 
37 91 
37 94 
37 96 
37 97 
37 100 
37 101 
37 104 
37 106 
37 107 
37 110 
37 112 
37 113 
37 115 
37 118 
37 120 
37 122 
37 123 
37 125 
37 128 
37 129 
37 131 
37 134 
37 135 
37 138 
37 139 
37 142 
37 144 
37 145 
37 148 
37 149 
37 151 
37 153 
37 155 
37 158 
37 159 
38 81 
38 84 
38 85 
38 87 
38 90 
38 92 
38 93 
38 95 
38 98 
38 99 
38 102 
38 103 
38 105 
38 108 
38 109 
38 111 
38 114 
38 116 
38 117 
38 119 
38 121 
38 124 
38 126 
38 127 
38 130 
38 132 
38 133 
38 136 
38 137 
38 140 
38 141 
38 143 
38 146 
38 147 
38 150 
38 152 
38 154 
38 156 
38 157 
38 160 
39 40 
39 81 
39 83 
39 85 
39 87 
39 89 
39 91 
39 94 
39 96 
39 98 
39 100 
39 101 
39 104 
39 105 
39 107 
39 110 
39 111 
39 113 
39 116 
39 118 
39 119 
39 121 
39 123 
39 125 
39 128 
39 129 
39 132 
39 134 
39 136 
39 137 
39 140 
39 141 
39 143 
39 146 
39 148 
39 150 
39 152 
39 153 
39 156 
39 158 
39 160 
40 82 
40 84 
40 86 
40 88 
40 90 
40 92 
40 93 
40 95 
40 97 
40 99 
40 102 
40 103 
40 106 
40 108 
40 109 
40 112 
40 114 
40 115 
40 117 
40 120 
40 122 
40 124 
40 126 
40 127 
40 130 
40 131 
40 133 
40 135 
40 138 
40 139 
40 142 
40 144 
40 145 
40 147 
40 149 
40 151 
40 154 
40 155 
40 157 
40 159 
41 42 
41 82 
41 84 
41 85 
41 88 
41 90 
41 91 
41 93 
41 96 
41 98 
41 99 
41 101 
41 104 
41 105 
41 107 
41 109 
41 111 
41 113 
41 115 
41 118 
41 119 
41 122 
41 124 
41 126 
41 128 
41 130 
41 131 
41 134 
41 136 
41 138 
41 140 
41 141 
41 143 
41 145 
41 148 
41 149 
41 151 
41 154 
41 156 
41 157 
41 159 
42 81 
42 83 
42 86 
42 87 
42 89 
42 92 
42 94 
42 95 
42 97 
42 100 
42 102 
42 103 
42 106 
42 108 
42 110 
42 112 
42 114 
42 116 
42 117 
42 120 
42 121 
42 123 
42 125 
42 127 
42 129 
42 132 
42 133 
42 135 
42 137 
42 139 
42 142 
42 144 
42 146 
42 147 
42 150 
42 152 
42 153 
42 155 
42 158 
42 160 
43 44 
43 81 
43 84 
43 86 
43 87 
43 90 
43 91 
43 93 
43 96 
43 97 
43 100 
43 101 
43 103 
43 106 
43 107 
43 110 
43 112 
43 113 
43 116 
43 117 
43 119 
43 122 
43 124 
43 126 
43 127 
43 129 
43 132 
43 134 
43 135 
43 137 
43 140 
43 141 
43 144 
43 145 
43 148 
43 150 
43 151 
43 154 
43 155 
43 157 
43 160 
44 82 
44 83 
44 85 
44 88 
44 89 
44 92 
44 94 
44 95 
44 98 
44 99 
44 102 
44 104 
44 105 
44 108 
44 109 
44 111 
44 114 
44 115 
44 118 
44 120 
44 121 
44 123 
44 125 
44 128 
44 130 
44 131 
44 133 
44 136 
44 138 
44 139 
44 142 
44 143 
44 146 
44 147 
44 149 
44 152 
44 153 
44 156 
44 158 
44 159 
45 46 
45 82 
45 83 
45 85 
45 88 
45 90 
45 91 
45 94 
45 96 
45 97 
45 99 
45 101 
45 103 
45 106 
45 107 
45 109 
45 112 
45 114 
45 116 
45 118 
45 119 
45 121 
45 124 
45 125 
45 127 
45 130 
45 131 
45 134 
45 135 
45 137 
45 139 
45 141 
45 144 
45 146 
45 147 
45 150 
45 152 
45 154 
45 156 
45 158 
45 159 
46 81 
46 84 
46 86 
46 87 
46 89 
46 92 
46 93 
46 95 
46 98 
46 100 
46 102 
46 104 
46 105 
46 108 
46 110 
46 111 
46 113 
46 115 
46 117 
46 120 
46 122 
46 123 
46 126 
46 128 
46 129 
46 132 
46 133 
46 136 
46 138 
46 140 
46 142 
46 143 
46 145 
46 148 
46 149 
46 151 
46 153 
46 155 
46 157 
46 160 
47 48 
47 82 
47 84 
47 86 
47 87 
47 89 
47 91 
47 93 
47 95 
47 98 
47 99 
47 101 
47 104 
47 105 
47 108 
47 110 
47 112 
47 113 
47 116 
47 118 
47 119 
47 122 
47 123 
47 125 
47 127 
47 130 
47 132 
47 133 
47 136 
47 137 
47 139 
47 142 
47 144 
47 145 
47 147 
47 150 
47 151 
47 154 
47 156 
47 158 
47 159 
48 81 
48 83 
48 85 
48 88 
48 90 
48 92 
48 94 
48 96 
48 97 
48 100 
48 102 
48 103 
48 106 
48 107 
48 109 
48 111 
48 114 
48 115 
48 117 
48 120 
48 121 
48 124 
48 126 
48 128 
48 129 
48 131 
48 134 
48 135 
48 138 
48 140 
48 141 
48 143 
48 146 
48 148 
48 149 
48 152 
48 153 
48 155 
48 157 
48 160 
49 50 
49 82 
49 83 
49 86 
49 88 
49 90 
49 91 
49 94 
49 95 
49 97 
49 100 
49 101 
49 104 
49 105 
49 108 
49 109 
49 111 
49 113 
49 115 
49 117 
49 120 
49 121 
49 123 
49 126 
49 127 
49 130 
49 132 
49 134 
49 135 
49 137 
49 139 
49 142 
49 143 
49 145 
49 148 
49 150 
49 152 
49 154 
49 156 
49 157 
49 160 
50 81 
50 84 
50 85 
50 87 
50 89 
50 92 
50 93 
50 96 
50 98 
50 99 
50 102 
50 103 
50 106 
50 107 
50 110 
50 112 
50 114 
50 116 
50 118 
50 119 
50 122 
50 124 
50 125 
50 128 
50 129 
50 131 
50 133 
50 136 
50 138 
50 140 
50 141 
50 144 
50 146 
50 147 
50 149 
50 151 
50 153 
50 155 
50 158 
50 159 
51 52 
51 82 
51 83 
51 85 
51 87 
51 89 
51 92 
51 93 
51 96 
51 98 
51 100 
51 101 
51 103 
51 106 
51 108 
51 109 
51 111 
51 114 
51 115 
51 117 
51 119 
51 122 
51 124 
51 125 
51 128 
51 129 
51 132 
51 134 
51 135 
51 138 
51 139 
51 142 
51 143 
51 145 
51 147 
51 150 
51 151 
51 154 
51 156 
51 158 
51 160 
52 81 
52 84 
52 86 
52 88 
52 90 
52 91 
52 94 
52 95 
52 97 
52 99 
52 102 
52 104 
52 105 
52 107 
52 110 
52 112 
52 113 
52 116 
52 118 
52 120 
52 121 
52 123 
52 126 
52 127 
52 130 
52 131 
52 133 
52 136 
52 137 
52 140 
52 141 
52 144 
52 146 
52 148 
52 149 
52 152 
52 153 
52 155 
52 157 
52 159 
53 54 
53 82 
53 83 
53 86 
53 87 
53 90 
53 92 
53 93 
53 96 
53 98 
53 100 
53 101 
53 103 
53 105 
53 107 
53 109 
53 111 
53 113 
53 116 
53 118 
53 120 
53 122 
53 123 
53 125 
53 128 
53 130 
53 131 
53 133 
53 135 
53 137 
53 140 
53 142 
53 144 
53 146 
53 147 
53 149 
53 152 
53 154 
53 155 
53 157 
53 160 
54 81 
54 84 
54 85 
54 88 
54 89 
54 91 
54 94 
54 95 
54 97 
54 99 
54 102 
54 104 
54 106 
54 108 
54 110 
54 112 
54 114 
54 115 
54 117 
54 119 
54 121 
54 124 
54 126 
54 127 
54 129 
54 132 
54 134 
54 136 
54 138 
54 139 
54 141 
54 143 
54 145 
54 148 
54 150 
54 151 
54 153 
54 156 
54 158 
54 159 
55 56 
55 82 
55 84 
55 85 
55 88 
55 90 
55 91 
55 94 
55 96 
55 98 
55 100 
55 102 
55 103 
55 105 
55 107 
55 110 
55 112 
55 114 
55 115 
55 118 
55 119 
55 121 
55 123 
55 125 
55 127 
55 130 
55 132 
55 133 
55 135 
55 138 
55 140 
55 142 
55 143 
55 145 
55 147 
55 150 
55 151 
55 153 
55 155 
55 157 
55 160 
56 81 
56 83 
56 86 
56 87 
56 89 
56 92 
56 93 
56 95 
56 97 
56 99 
56 101 
56 104 
56 106 
56 108 
56 109 
56 111 
56 113 
56 116 
56 117 
56 120 
56 122 
56 124 
56 126 
56 128 
56 129 
56 131 
56 134 
56 136 
56 137 
56 139 
56 141 
56 144 
56 146 
56 148 
56 149 
56 152 
56 154 
56 156 
56 158 
56 159 
57 58 
57 81 
57 83 
57 85 
57 87 
57 89 
57 92 
57 94 
57 95 
57 98 
57 100 
57 102 
57 104 
57 106 
57 107 
57 110 
57 111 
57 114 
57 115 
57 118 
57 120 
57 122 
57 123 
57 126 
57 127 
57 130 
57 131 
57 134 
57 135 
57 137 
57 140 
57 141 
57 144 
57 145 
57 147 
57 150 
57 151 
57 154 
57 156 
57 157 
57 159 
58 82 
58 84 
58 86 
58 88 
58 90 
58 91 
58 93 
58 96 
58 97 
58 99 
58 101 
58 103 
58 105 
58 108 
58 109 
58 112 
58 113 
58 116 
58 117 
58 119 
58 121 
58 124 
58 125 
58 128 
58 129 
58 132 
58 133 
58 136 
58 138 
58 139 
58 142 
58 143 
58 146 
58 148 
58 149 
58 152 
58 153 
58 155 
58 158 
58 160 
59 60 
59 81 
59 83 
59 85 
59 88 
59 90 
59 92 
59 93 
59 96 
59 97 
59 99 
59 101 
59 104 
59 106 
59 107 
59 110 
59 112 
59 113 
59 115 
59 117 
59 120 
59 122 
59 123 
59 125 
59 127 
59 129 
59 132 
59 133 
59 136 
59 138 
59 140 
59 142 
59 143 
59 146 
59 147 
59 150 
59 152 
59 154 
59 156 
59 157 
59 159 
60 82 
60 84 
60 86 
60 87 
60 89 
60 91 
60 94 
60 95 
60 98 
60 100 
60 102 
60 103 
60 105 
60 108 
60 109 
60 111 
60 114 
60 116 
60 118 
60 119 
60 121 
60 124 
60 126 
60 128 
60 130 
60 131 
60 134 
60 135 
60 137 
60 139 
60 141 
60 144 
60 145 
60 148 
60 149 
60 151 
60 153 
60 155 
60 158 
60 160 
61 62 
61 82 
61 84 
61 86 
61 88 
61 89 
61 92 
61 94 
61 95 
61 98 
61 99 
61 101 
61 103 
61 105 
61 107 
61 109 
61 112 
61 114 
61 115 
61 117 
61 120 
61 122 
61 123 
61 125 
61 127 
61 129 
61 131 
61 134 
61 136 
61 137 
61 140 
61 141 
61 143 
61 146 
61 148 
61 150 
61 151 
61 154 
61 155 
61 158 
61 160 
62 81 
62 83 
62 85 
62 87 
62 90 
62 91 
62 93 
62 96 
62 97 
62 100 
62 102 
62 104 
62 106 
62 108 
62 110 
62 111 
62 113 
62 116 
62 118 
62 119 
62 121 
62 124 
62 126 
62 128 
62 130 
62 132 
62 133 
62 135 
62 138 
62 139 
62 142 
62 144 
62 145 
62 147 
62 149 
62 152 
62 153 
62 156 
62 157 
62 159 
63 64 
63 81 
63 83 
63 86 
63 87 
63 89 
63 92 
63 94 
63 96 
63 98 
63 99 
63 101 
63 104 
63 105 
63 108 
63 110 
63 112 
63 114 
63 116 
63 117 
63 119 
63 121 
63 124 
63 125 
63 127 
63 130 
63 131 
63 134 
63 135 
63 138 
63 140 
63 142 
63 143 
63 145 
63 148 
63 149 
63 152 
63 154 
63 155 
63 157 
63 159 
64 82 
64 84 
64 85 
64 88 
64 90 
64 91 
64 93 
64 95 
64 97 
64 100 
64 102 
64 103 
64 106 
64 107 
64 109 
64 111 
64 113 
64 115 
64 118 
64 120 
64 122 
64 123 
64 126 
64 128 
64 129 
64 132 
64 133 
64 136 
64 137 
64 139 
64 141 
64 144 
64 146 
64 147 
64 150 
64 151 
64 153 
64 156 
64 158 
64 160 
65 66 
65 81 
65 83 
65 86 
65 88 
65 89 
65 91 
65 93 
65 96 
65 98 
65 100 
65 101 
65 103 
65 106 
65 108 
65 109 
65 112 
65 114 
65 115 
65 117 
65 119 
65 121 
65 123 
65 126 
65 128 
65 130 
65 131 
65 133 
65 136 
65 137 
65 140 
65 142 
65 144 
65 146 
65 148 
65 150 
65 151 
65 153 
65 156 
65 157 
65 159 
66 82 
66 84 
66 85 
66 87 
66 90 
66 92 
66 94 
66 95 
66 97 
66 99 
66 102 
66 104 
66 105 
66 107 
66 110 
66 111 
66 113 
66 116 
66 118 
66 120 
66 122 
66 124 
66 125 
66 127 
66 129 
66 132 
66 134 
66 135 
66 138 
66 139 
66 141 
66 143 
66 145 
66 147 
66 149 
66 152 
66 154 
66 155 
66 158 
66 160 
67 68 
67 82 
67 83 
67 86 
67 87 
67 90 
67 92 
67 94 
67 96 
67 97 
67 99 
67 102 
67 103 
67 105 
67 108 
67 110 
67 112 
67 113 
67 115 
67 117 
67 119 
67 122 
67 123 
67 126 
67 128 
67 130 
67 132 
67 134 
67 135 
67 137 
67 140 
67 141 
67 143 
67 146 
67 147 
67 149 
67 151 
67 153 
67 156 
67 158 
67 159 
68 81 
68 84 
68 85 
68 88 
68 89 
68 91 
68 93 
68 95 
68 98 
68 100 
68 101 
68 104 
68 106 
68 107 
68 109 
68 111 
68 114 
68 116 
68 118 
68 120 
68 121 
68 124 
68 125 
68 127 
68 129 
68 131 
68 133 
68 136 
68 138 
68 139 
68 142 
68 144 
68 145 
68 148 
68 150 
68 152 
68 154 
68 155 
68 157 
68 160 
69 70 
69 82 
69 84 
69 86 
69 88 
69 89 
69 92 
69 93 
69 96 
69 97 
69 100 
69 101 
69 103 
69 105 
69 108 
69 110 
69 111 
69 114 
69 115 
69 118 
69 120 
69 121 
69 124 
69 125 
69 127 
69 129 
69 132 
69 134 
69 136 
69 137 
69 140 
69 141 
69 144 
69 145 
69 147 
69 149 
69 152 
69 153 
69 156 
69 157 
69 159 
70 81 
70 83 
70 85 
70 87 
70 90 
70 91 
70 94 
70 95 
70 98 
70 99 
70 102 
70 104 
70 106 
70 107 
70 109 
70 112 
70 113 
70 116 
70 117 
70 119 
70 122 
70 123 
70 126 
70 128 
70 130 
70 131 
70 133 
70 135 
70 138 
70 139 
70 142 
70 143 
70 146 
70 148 
70 150 
70 151 
70 154 
70 155 
70 158 
70 160 
71 72 
71 82 
71 83 
71 85 
71 87 
71 90 
71 91 
71 94 
71 95 
71 98 
71 100 
71 101 
71 103 
71 105 
71 108 
71 110 
71 112 
71 113 
71 115 
71 117 
71 120 
71 121 
71 124 
71 126 
71 128 
71 129 
71 131 
71 133 
71 136 
71 138 
71 140 
71 141 
71 144 
71 145 
71 147 
71 150 
71 152 
71 154 
71 155 
71 158 
71 159 
72 81 
72 84 
72 86 
72 88 
72 89 
72 92 
72 93 
72 96 
72 97 
72 99 
72 102 
72 104 
72 106 
72 107 
72 109 
72 111 
72 114 
72 116 
72 118 
72 119 
72 122 
72 123 
72 125 
72 127 
72 130 
72 132 
72 134 
72 135 
72 137 
72 139 
72 142 
72 143 
72 146 
72 148 
72 149 
72 151 
72 153 
72 156 
72 157 
72 160 
73 74 
73 81 
73 84 
73 85 
73 88 
73 89 
73 91 
73 94 
73 96 
73 98 
73 100 
73 102 
73 103 
73 106 
73 108 
73 109 
73 112 
73 113 
73 116 
73 117 
73 120 
73 122 
73 123 
73 125 
73 128 
73 130 
73 132 
73 134 
73 136 
73 137 
73 139 
73 141 
73 143 
73 145 
73 147 
73 149 
73 152 
73 154 
73 155 
73 157 
73 159 
74 82 
74 83 
74 86 
74 87 
74 90 
74 92 
74 93 
74 95 
74 97 
74 99 
74 101 
74 104 
74 105 
74 107 
74 110 
74 111 
74 114 
74 115 
74 118 
74 119 
74 121 
74 124 
74 126 
74 127 
74 129 
74 131 
74 133 
74 135 
74 138 
74 140 
74 142 
74 144 
74 146 
74 148 
74 150 
74 151 
74 153 
74 156 
74 158 
74 160 
75 76 
75 81 
75 84 
75 85 
75 88 
75 90 
75 91 
75 93 
75 95 
75 97 
75 100 
75 101 
75 104 
75 105 
75 108 
75 110 
75 111 
75 114 
75 116 
75 117 
75 120 
75 122 
75 124 
75 125 
75 128 
75 130 
75 131 
75 134 
75 135 
75 137 
75 140 
75 142 
75 143 
75 146 
75 147 
75 150 
75 151 
75 153 
75 155 
75 158 
75 159 
76 82 
76 83 
76 86 
76 87 
76 89 
76 92 
76 94 
76 96 
76 98 
76 99 
76 102 
76 103 
76 106 
76 107 
76 109 
76 112 
76 113 
76 115 
76 118 
76 119 
76 121 
76 123 
76 126 
76 127 
76 129 
76 132 
76 133 
76 136 
76 138 
76 139 
76 141 
76 144 
76 145 
76 148 
76 149 
76 152 
76 154 
76 156 
76 157 
76 160 
77 78 
77 81 
77 83 
77 85 
77 88 
77 89 
77 92 
77 93 
77 96 
77 97 
77 99 
77 102 
77 104 
77 105 
77 108 
77 109 
77 112 
77 113 
77 115 
77 118 
77 120 
77 121 
77 124 
77 125 
77 128 
77 130 
77 132 
77 133 
77 135 
77 137 
77 140 
77 141 
77 144 
77 145 
77 148 
77 150 
77 151 
77 154 
77 155 
77 158 
77 160 
78 82 
78 84 
78 86 
78 87 
78 90 
78 91 
78 94 
78 95 
78 98 
78 100 
78 101 
78 103 
78 106 
78 107 
78 110 
78 111 
78 114 
78 116 
78 117 
78 119 
78 122 
78 123 
78 126 
78 127 
78 129 
78 131 
78 134 
78 136 
78 138 
78 139 
78 142 
78 143 
78 146 
78 147 
78 149 
78 152 
78 153 
78 156 
78 157 
78 159 
79 80 
79 82 
79 83 
79 85 
79 88 
79 89 
79 92 
79 94 
79 96 
79 97 
79 100 
79 102 
79 103 
79 105 
79 108 
79 110 
79 111 
79 113 
79 116 
79 118 
79 119 
79 122 
79 124 
79 126 
79 127 
79 129 
79 131 
79 133 
79 136 
79 137 
79 139 
79 142 
79 143 
79 146 
79 148 
79 150 
79 151 
79 154 
79 155 
79 157 
79 159 
80 81 
80 84 
80 86 
80 87 
80 90 
80 91 
80 93 
80 95 
80 98 
80 99 
80 101 
80 104 
80 106 
80 107 
80 109 
80 112 
80 114 
80 115 
80 117 
80 120 
80 121 
80 123 
80 125 
80 128 
80 130 
80 132 
80 134 
80 135 
80 138 
80 140 
80 141 
80 144 
80 145 
80 147 
80 149 
80 152 
80 153 
80 156 
80 158 
80 160 
81 82 
83 84 
85 86 
87 88 
89 90 
91 92 
93 94 
95 96 
97 98 
99 100 
101 102 
103 104 
105 106 
107 108 
109 110 
111 112 
113 114 
115 116 
117 118 
119 120 
121 122 
123 124 
125 126 
127 128 
129 130 
131 132 
133 134 
135 136 
137 138 
139 140 
141 142 
143 144 
145 146 
147 148 
149 150 
151 152 
153 154 
155 156 
157 158 
159 160 
